p cnf 9 26
-5 -1 0
-5 -2 0
-5 -3 0
-5 -4 0
1 2 3 4 5 0
-6 1 0
-6 -2 0
-6 -3 0
-6 -4 0
-1 2 3 4 6 0
-7 -1 0
-7 2 0
-7 -3 0
-7 -4 0
1 -2 3 4 7 0
-8 -1 0
-8 -2 0
-8 3 0
-8 -4 0
1 2 -3 4 8 0
-9 -1 0
-9 -2 0
-9 -3 0
-9 4 0
1 2 3 -4 9 0
5 6 7 8 9 0
